Route #1: 1 15 8 24 20 52 40
Route #2: 1 56 51 14 18 58 53 32 10
Route #3: 1 23 13 5 27 44 33 43 34
Route #4: 1 59 26 41 42 7 21 54 47 28
Route #5: 1 25 16 4 11 50 60 38
Route #6: 1 35 17 49 19 36 48 57 22 30
Route #7: 1 45 29 61 12 2
Route #8: 1 31 39
Route #9: 1 9 3 6 55
cost 1148
